outputs/case_374.model.txt
investment_in_fund_certificates = 50000
deposit_from_invested_company = 500000
deposit_from_credited_company = 300000
investment_in_beneficiary_securities = 20000
bank_type_industrial = True
deposit_from_legal_insurance = 200000
investment_in_central_bank_cds_and_savings = 30000
stock_is_otc_controlled = False
investment_in_government_bonds = 100000
investment_in_stocks = 100000
deposit_from_government_agency = 1
investment_in_short_term_notes = 50000
investment_in_trust_funds = 15000
stock_is_changed_trading_method = True
investment_in_international_financial_org_bonds = 10000
main_business_long_term_credit = 1000000
investment_in_other_approved_securities = 5000
deposit_from_corporate_foundation = 100000
investment_in_financial_and_corporate_bonds = 200000
investment_in_excluded_stocks = 1
industrial_bank_management_rules_defined = True
industrial_bank_definition = False
investment_scope_defined_by_authority = True
industrial_bank_investment_scope_ok = True
penalty = False
industrial_bank_deposit_limit_ok = True
industrial_bank_investment_securities_types_ok = True
management_rules_defined_by_authority = True